13
1 0 5
2 0 5
2 1 6
3 0 7
3 1 4
3 2 3
4 0 5
4 1 5
4 2 4
4 3 3
5 0 4
5 1 3
5 2 5
5 3 5
5 4 3
6 0 4
6 1 7
6 2 4
6 3 7
6 4 3
6 5 5
7 0 7
7 1 7
7 2 3
7 3 6
7 4 4
7 5 7
7 6 5
8 0 6
8 1 4
8 2 5
8 3 7
8 4 7
8 5 7
8 6 4
8 7 3
9 0 7
9 1 3
9 2 7
9 3 5
9 4 6
9 5 5
9 6 4
9 7 7
9 8 3
10 0 6
10 1 3
10 2 3
10 3 5
10 4 5
10 5 4
10 6 4
10 7 4
10 8 6
10 9 3
11 0 6
11 1 5
11 2 6
11 3 4
11 4 3
11 5 3
11 6 7
11 7 6
11 8 7
11 9 6
11 10 4
12 0 4
12 1 5
12 2 3
12 3 7
12 4 5
12 5 6
12 6 4
12 7 4
12 8 4
12 9 7
12 10 6
12 11 3
